(set-logic QF_LRA)
(declare-fun X0 () Real )
(declare-fun Y0 () Real )
(declare-fun X1 () Real )
(declare-fun Y1 () Real )
(declare-fun X2 () Real )
(declare-fun Y2 () Real )
(declare-fun X3 () Real )
(declare-fun Y3 () Real )
(declare-fun X4 () Real )
(declare-fun Y4 () Real )
(declare-fun X5 () Real )
(declare-fun Y5 () Real )
(declare-fun X6 () Real )
(declare-fun Y6 () Real )
(declare-fun X7 () Real )
(declare-fun Y7 () Real )
(declare-fun X8 () Real )
(declare-fun Y8 () Real )
(declare-fun X9 () Real )
(declare-fun Y9 () Real )
(declare-fun X10 () Real )
(declare-fun Y10 () Real )
(declare-fun X11 () Real )
(declare-fun Y11 () Real )
(declare-fun X12 () Real )
(declare-fun Y12 () Real )
(declare-fun X13 () Real )
(declare-fun Y13 () Real )
(declare-fun X14 () Real )
(declare-fun Y14 () Real )
(declare-fun Z () Real )
(declare-fun k () Real )
(assert (let
(( $goal (>= Z k) ))
(let
((
$phi ( and 
( or ( <= ( + X0 32 ) X1 )  ( <= ( + X1 27 ) X0 )  ( <= ( + Y0 9 ) Y1 )  ( <= ( + Y1 72 ) Y0 )  )
( or ( <= ( + X0 32 ) X2 )  ( <= ( + X2 89 ) X0 )  ( <= ( + Y0 9 ) Y2 )  ( <= ( + Y2 39 ) Y0 )  )
( or ( <= ( + X0 32 ) X3 )  ( <= ( + X3 15 ) X0 )  ( <= ( + Y0 9 ) Y3 )  ( <= ( + Y3 15 ) Y0 )  )
( or ( <= ( + X0 32 ) X4 )  ( <= ( + X4 49 ) X0 )  ( <= ( + Y0 9 ) Y4 )  ( <= ( + Y4 82 ) Y0 )  )
( or ( <= ( + X0 32 ) X5 )  ( <= ( + X5 3 ) X0 )  ( <= ( + Y0 9 ) Y5 )  ( <= ( + Y5 81 ) Y0 )  )
( or ( <= ( + X0 32 ) X6 )  ( <= ( + X6 64 ) X0 )  ( <= ( + Y0 9 ) Y6 )  ( <= ( + Y6 76 ) Y0 )  )
( or ( <= ( + X0 32 ) X7 )  ( <= ( + X7 65 ) X0 )  ( <= ( + Y0 9 ) Y7 )  ( <= ( + Y7 3 ) Y0 )  )
( or ( <= ( + X0 32 ) X8 )  ( <= ( + X8 33 ) X0 )  ( <= ( + Y0 9 ) Y8 )  ( <= ( + Y8 33 ) Y0 )  )
( or ( <= ( + X0 32 ) X9 )  ( <= ( + X9 12 ) X0 )  ( <= ( + Y0 9 ) Y9 )  ( <= ( + Y9 1 ) Y0 )  )
( or ( <= ( + X0 32 ) X10 )  ( <= ( + X10 45 ) X0 )  ( <= ( + Y0 9 ) Y10 )  ( <= ( + Y10 58 ) Y0 )  )
( or ( <= ( + X0 32 ) X11 )  ( <= ( + X11 20 ) X0 )  ( <= ( + Y0 9 ) Y11 )  ( <= ( + Y11 21 ) Y0 )  )
( or ( <= ( + X0 32 ) X12 )  ( <= ( + X12 30 ) X0 )  ( <= ( + Y0 9 ) Y12 )  ( <= ( + Y12 40 ) Y0 )  )
( or ( <= ( + X0 32 ) X13 )  ( <= ( + X13 96 ) X0 )  ( <= ( + Y0 9 ) Y13 )  ( <= ( + Y13 92 ) Y0 )  )
( or ( <= ( + X0 32 ) X14 )  ( <= ( + X14 15 ) X0 )  ( <= ( + Y0 9 ) Y14 )  ( <= ( + Y14 73 ) Y0 )  )
( or ( <= ( + X1 27 ) X2 )  ( <= ( + X2 89 ) X1 )  ( <= ( + Y1 72 ) Y2 )  ( <= ( + Y2 39 ) Y1 )  )
( or ( <= ( + X1 27 ) X3 )  ( <= ( + X3 15 ) X1 )  ( <= ( + Y1 72 ) Y3 )  ( <= ( + Y3 15 ) Y1 )  )
( or ( <= ( + X1 27 ) X4 )  ( <= ( + X4 49 ) X1 )  ( <= ( + Y1 72 ) Y4 )  ( <= ( + Y4 82 ) Y1 )  )
( or ( <= ( + X1 27 ) X5 )  ( <= ( + X5 3 ) X1 )  ( <= ( + Y1 72 ) Y5 )  ( <= ( + Y5 81 ) Y1 )  )
( or ( <= ( + X1 27 ) X6 )  ( <= ( + X6 64 ) X1 )  ( <= ( + Y1 72 ) Y6 )  ( <= ( + Y6 76 ) Y1 )  )
( or ( <= ( + X1 27 ) X7 )  ( <= ( + X7 65 ) X1 )  ( <= ( + Y1 72 ) Y7 )  ( <= ( + Y7 3 ) Y1 )  )
( or ( <= ( + X1 27 ) X8 )  ( <= ( + X8 33 ) X1 )  ( <= ( + Y1 72 ) Y8 )  ( <= ( + Y8 33 ) Y1 )  )
( or ( <= ( + X1 27 ) X9 )  ( <= ( + X9 12 ) X1 )  ( <= ( + Y1 72 ) Y9 )  ( <= ( + Y9 1 ) Y1 )  )
( or ( <= ( + X1 27 ) X10 )  ( <= ( + X10 45 ) X1 )  ( <= ( + Y1 72 ) Y10 )  ( <= ( + Y10 58 ) Y1 )  )
( or ( <= ( + X1 27 ) X11 )  ( <= ( + X11 20 ) X1 )  ( <= ( + Y1 72 ) Y11 )  ( <= ( + Y11 21 ) Y1 )  )
( or ( <= ( + X1 27 ) X12 )  ( <= ( + X12 30 ) X1 )  ( <= ( + Y1 72 ) Y12 )  ( <= ( + Y12 40 ) Y1 )  )
( or ( <= ( + X1 27 ) X13 )  ( <= ( + X13 96 ) X1 )  ( <= ( + Y1 72 ) Y13 )  ( <= ( + Y13 92 ) Y1 )  )
( or ( <= ( + X1 27 ) X14 )  ( <= ( + X14 15 ) X1 )  ( <= ( + Y1 72 ) Y14 )  ( <= ( + Y14 73 ) Y1 )  )
( or ( <= ( + X2 89 ) X3 )  ( <= ( + X3 15 ) X2 )  ( <= ( + Y2 39 ) Y3 )  ( <= ( + Y3 15 ) Y2 )  )
( or ( <= ( + X2 89 ) X4 )  ( <= ( + X4 49 ) X2 )  ( <= ( + Y2 39 ) Y4 )  ( <= ( + Y4 82 ) Y2 )  )
( or ( <= ( + X2 89 ) X5 )  ( <= ( + X5 3 ) X2 )  ( <= ( + Y2 39 ) Y5 )  ( <= ( + Y5 81 ) Y2 )  )
( or ( <= ( + X2 89 ) X6 )  ( <= ( + X6 64 ) X2 )  ( <= ( + Y2 39 ) Y6 )  ( <= ( + Y6 76 ) Y2 )  )
( or ( <= ( + X2 89 ) X7 )  ( <= ( + X7 65 ) X2 )  ( <= ( + Y2 39 ) Y7 )  ( <= ( + Y7 3 ) Y2 )  )
( or ( <= ( + X2 89 ) X8 )  ( <= ( + X8 33 ) X2 )  ( <= ( + Y2 39 ) Y8 )  ( <= ( + Y8 33 ) Y2 )  )
( or ( <= ( + X2 89 ) X9 )  ( <= ( + X9 12 ) X2 )  ( <= ( + Y2 39 ) Y9 )  ( <= ( + Y9 1 ) Y2 )  )
( or ( <= ( + X2 89 ) X10 )  ( <= ( + X10 45 ) X2 )  ( <= ( + Y2 39 ) Y10 )  ( <= ( + Y10 58 ) Y2 )  )
( or ( <= ( + X2 89 ) X11 )  ( <= ( + X11 20 ) X2 )  ( <= ( + Y2 39 ) Y11 )  ( <= ( + Y11 21 ) Y2 )  )
( or ( <= ( + X2 89 ) X12 )  ( <= ( + X12 30 ) X2 )  ( <= ( + Y2 39 ) Y12 )  ( <= ( + Y12 40 ) Y2 )  )
( or ( <= ( + X2 89 ) X13 )  ( <= ( + X13 96 ) X2 )  ( <= ( + Y2 39 ) Y13 )  ( <= ( + Y13 92 ) Y2 )  )
( or ( <= ( + X2 89 ) X14 )  ( <= ( + X14 15 ) X2 )  ( <= ( + Y2 39 ) Y14 )  ( <= ( + Y14 73 ) Y2 )  )
( or ( <= ( + X3 15 ) X4 )  ( <= ( + X4 49 ) X3 )  ( <= ( + Y3 15 ) Y4 )  ( <= ( + Y4 82 ) Y3 )  )
( or ( <= ( + X3 15 ) X5 )  ( <= ( + X5 3 ) X3 )  ( <= ( + Y3 15 ) Y5 )  ( <= ( + Y5 81 ) Y3 )  )
( or ( <= ( + X3 15 ) X6 )  ( <= ( + X6 64 ) X3 )  ( <= ( + Y3 15 ) Y6 )  ( <= ( + Y6 76 ) Y3 )  )
( or ( <= ( + X3 15 ) X7 )  ( <= ( + X7 65 ) X3 )  ( <= ( + Y3 15 ) Y7 )  ( <= ( + Y7 3 ) Y3 )  )
( or ( <= ( + X3 15 ) X8 )  ( <= ( + X8 33 ) X3 )  ( <= ( + Y3 15 ) Y8 )  ( <= ( + Y8 33 ) Y3 )  )
( or ( <= ( + X3 15 ) X9 )  ( <= ( + X9 12 ) X3 )  ( <= ( + Y3 15 ) Y9 )  ( <= ( + Y9 1 ) Y3 )  )
( or ( <= ( + X3 15 ) X10 )  ( <= ( + X10 45 ) X3 )  ( <= ( + Y3 15 ) Y10 )  ( <= ( + Y10 58 ) Y3 )  )
( or ( <= ( + X3 15 ) X11 )  ( <= ( + X11 20 ) X3 )  ( <= ( + Y3 15 ) Y11 )  ( <= ( + Y11 21 ) Y3 )  )
( or ( <= ( + X3 15 ) X12 )  ( <= ( + X12 30 ) X3 )  ( <= ( + Y3 15 ) Y12 )  ( <= ( + Y12 40 ) Y3 )  )
( or ( <= ( + X3 15 ) X13 )  ( <= ( + X13 96 ) X3 )  ( <= ( + Y3 15 ) Y13 )  ( <= ( + Y13 92 ) Y3 )  )
( or ( <= ( + X3 15 ) X14 )  ( <= ( + X14 15 ) X3 )  ( <= ( + Y3 15 ) Y14 )  ( <= ( + Y14 73 ) Y3 )  )
( or ( <= ( + X4 49 ) X5 )  ( <= ( + X5 3 ) X4 )  ( <= ( + Y4 82 ) Y5 )  ( <= ( + Y5 81 ) Y4 )  )
( or ( <= ( + X4 49 ) X6 )  ( <= ( + X6 64 ) X4 )  ( <= ( + Y4 82 ) Y6 )  ( <= ( + Y6 76 ) Y4 )  )
( or ( <= ( + X4 49 ) X7 )  ( <= ( + X7 65 ) X4 )  ( <= ( + Y4 82 ) Y7 )  ( <= ( + Y7 3 ) Y4 )  )
( or ( <= ( + X4 49 ) X8 )  ( <= ( + X8 33 ) X4 )  ( <= ( + Y4 82 ) Y8 )  ( <= ( + Y8 33 ) Y4 )  )
( or ( <= ( + X4 49 ) X9 )  ( <= ( + X9 12 ) X4 )  ( <= ( + Y4 82 ) Y9 )  ( <= ( + Y9 1 ) Y4 )  )
( or ( <= ( + X4 49 ) X10 )  ( <= ( + X10 45 ) X4 )  ( <= ( + Y4 82 ) Y10 )  ( <= ( + Y10 58 ) Y4 )  )
( or ( <= ( + X4 49 ) X11 )  ( <= ( + X11 20 ) X4 )  ( <= ( + Y4 82 ) Y11 )  ( <= ( + Y11 21 ) Y4 )  )
( or ( <= ( + X4 49 ) X12 )  ( <= ( + X12 30 ) X4 )  ( <= ( + Y4 82 ) Y12 )  ( <= ( + Y12 40 ) Y4 )  )
( or ( <= ( + X4 49 ) X13 )  ( <= ( + X13 96 ) X4 )  ( <= ( + Y4 82 ) Y13 )  ( <= ( + Y13 92 ) Y4 )  )
( or ( <= ( + X4 49 ) X14 )  ( <= ( + X14 15 ) X4 )  ( <= ( + Y4 82 ) Y14 )  ( <= ( + Y14 73 ) Y4 )  )
( or ( <= ( + X5 3 ) X6 )  ( <= ( + X6 64 ) X5 )  ( <= ( + Y5 81 ) Y6 )  ( <= ( + Y6 76 ) Y5 )  )
( or ( <= ( + X5 3 ) X7 )  ( <= ( + X7 65 ) X5 )  ( <= ( + Y5 81 ) Y7 )  ( <= ( + Y7 3 ) Y5 )  )
( or ( <= ( + X5 3 ) X8 )  ( <= ( + X8 33 ) X5 )  ( <= ( + Y5 81 ) Y8 )  ( <= ( + Y8 33 ) Y5 )  )
( or ( <= ( + X5 3 ) X9 )  ( <= ( + X9 12 ) X5 )  ( <= ( + Y5 81 ) Y9 )  ( <= ( + Y9 1 ) Y5 )  )
( or ( <= ( + X5 3 ) X10 )  ( <= ( + X10 45 ) X5 )  ( <= ( + Y5 81 ) Y10 )  ( <= ( + Y10 58 ) Y5 )  )
( or ( <= ( + X5 3 ) X11 )  ( <= ( + X11 20 ) X5 )  ( <= ( + Y5 81 ) Y11 )  ( <= ( + Y11 21 ) Y5 )  )
( or ( <= ( + X5 3 ) X12 )  ( <= ( + X12 30 ) X5 )  ( <= ( + Y5 81 ) Y12 )  ( <= ( + Y12 40 ) Y5 )  )
( or ( <= ( + X5 3 ) X13 )  ( <= ( + X13 96 ) X5 )  ( <= ( + Y5 81 ) Y13 )  ( <= ( + Y13 92 ) Y5 )  )
( or ( <= ( + X5 3 ) X14 )  ( <= ( + X14 15 ) X5 )  ( <= ( + Y5 81 ) Y14 )  ( <= ( + Y14 73 ) Y5 )  )
( or ( <= ( + X6 64 ) X7 )  ( <= ( + X7 65 ) X6 )  ( <= ( + Y6 76 ) Y7 )  ( <= ( + Y7 3 ) Y6 )  )
( or ( <= ( + X6 64 ) X8 )  ( <= ( + X8 33 ) X6 )  ( <= ( + Y6 76 ) Y8 )  ( <= ( + Y8 33 ) Y6 )  )
( or ( <= ( + X6 64 ) X9 )  ( <= ( + X9 12 ) X6 )  ( <= ( + Y6 76 ) Y9 )  ( <= ( + Y9 1 ) Y6 )  )
( or ( <= ( + X6 64 ) X10 )  ( <= ( + X10 45 ) X6 )  ( <= ( + Y6 76 ) Y10 )  ( <= ( + Y10 58 ) Y6 )  )
( or ( <= ( + X6 64 ) X11 )  ( <= ( + X11 20 ) X6 )  ( <= ( + Y6 76 ) Y11 )  ( <= ( + Y11 21 ) Y6 )  )
( or ( <= ( + X6 64 ) X12 )  ( <= ( + X12 30 ) X6 )  ( <= ( + Y6 76 ) Y12 )  ( <= ( + Y12 40 ) Y6 )  )
( or ( <= ( + X6 64 ) X13 )  ( <= ( + X13 96 ) X6 )  ( <= ( + Y6 76 ) Y13 )  ( <= ( + Y13 92 ) Y6 )  )
( or ( <= ( + X6 64 ) X14 )  ( <= ( + X14 15 ) X6 )  ( <= ( + Y6 76 ) Y14 )  ( <= ( + Y14 73 ) Y6 )  )
( or ( <= ( + X7 65 ) X8 )  ( <= ( + X8 33 ) X7 )  ( <= ( + Y7 3 ) Y8 )  ( <= ( + Y8 33 ) Y7 )  )
( or ( <= ( + X7 65 ) X9 )  ( <= ( + X9 12 ) X7 )  ( <= ( + Y7 3 ) Y9 )  ( <= ( + Y9 1 ) Y7 )  )
( or ( <= ( + X7 65 ) X10 )  ( <= ( + X10 45 ) X7 )  ( <= ( + Y7 3 ) Y10 )  ( <= ( + Y10 58 ) Y7 )  )
( or ( <= ( + X7 65 ) X11 )  ( <= ( + X11 20 ) X7 )  ( <= ( + Y7 3 ) Y11 )  ( <= ( + Y11 21 ) Y7 )  )
( or ( <= ( + X7 65 ) X12 )  ( <= ( + X12 30 ) X7 )  ( <= ( + Y7 3 ) Y12 )  ( <= ( + Y12 40 ) Y7 )  )
( or ( <= ( + X7 65 ) X13 )  ( <= ( + X13 96 ) X7 )  ( <= ( + Y7 3 ) Y13 )  ( <= ( + Y13 92 ) Y7 )  )
( or ( <= ( + X7 65 ) X14 )  ( <= ( + X14 15 ) X7 )  ( <= ( + Y7 3 ) Y14 )  ( <= ( + Y14 73 ) Y7 )  )
( or ( <= ( + X8 33 ) X9 )  ( <= ( + X9 12 ) X8 )  ( <= ( + Y8 33 ) Y9 )  ( <= ( + Y9 1 ) Y8 )  )
( or ( <= ( + X8 33 ) X10 )  ( <= ( + X10 45 ) X8 )  ( <= ( + Y8 33 ) Y10 )  ( <= ( + Y10 58 ) Y8 )  )
( or ( <= ( + X8 33 ) X11 )  ( <= ( + X11 20 ) X8 )  ( <= ( + Y8 33 ) Y11 )  ( <= ( + Y11 21 ) Y8 )  )
( or ( <= ( + X8 33 ) X12 )  ( <= ( + X12 30 ) X8 )  ( <= ( + Y8 33 ) Y12 )  ( <= ( + Y12 40 ) Y8 )  )
( or ( <= ( + X8 33 ) X13 )  ( <= ( + X13 96 ) X8 )  ( <= ( + Y8 33 ) Y13 )  ( <= ( + Y13 92 ) Y8 )  )
( or ( <= ( + X8 33 ) X14 )  ( <= ( + X14 15 ) X8 )  ( <= ( + Y8 33 ) Y14 )  ( <= ( + Y14 73 ) Y8 )  )
( or ( <= ( + X9 12 ) X10 )  ( <= ( + X10 45 ) X9 )  ( <= ( + Y9 1 ) Y10 )  ( <= ( + Y10 58 ) Y9 )  )
( or ( <= ( + X9 12 ) X11 )  ( <= ( + X11 20 ) X9 )  ( <= ( + Y9 1 ) Y11 )  ( <= ( + Y11 21 ) Y9 )  )
( or ( <= ( + X9 12 ) X12 )  ( <= ( + X12 30 ) X9 )  ( <= ( + Y9 1 ) Y12 )  ( <= ( + Y12 40 ) Y9 )  )
( or ( <= ( + X9 12 ) X13 )  ( <= ( + X13 96 ) X9 )  ( <= ( + Y9 1 ) Y13 )  ( <= ( + Y13 92 ) Y9 )  )
( or ( <= ( + X9 12 ) X14 )  ( <= ( + X14 15 ) X9 )  ( <= ( + Y9 1 ) Y14 )  ( <= ( + Y14 73 ) Y9 )  )
( or ( <= ( + X10 45 ) X11 )  ( <= ( + X11 20 ) X10 )  ( <= ( + Y10 58 ) Y11 )  ( <= ( + Y11 21 ) Y10 )  )
( or ( <= ( + X10 45 ) X12 )  ( <= ( + X12 30 ) X10 )  ( <= ( + Y10 58 ) Y12 )  ( <= ( + Y12 40 ) Y10 )  )
( or ( <= ( + X10 45 ) X13 )  ( <= ( + X13 96 ) X10 )  ( <= ( + Y10 58 ) Y13 )  ( <= ( + Y13 92 ) Y10 )  )
( or ( <= ( + X10 45 ) X14 )  ( <= ( + X14 15 ) X10 )  ( <= ( + Y10 58 ) Y14 )  ( <= ( + Y14 73 ) Y10 )  )
( or ( <= ( + X11 20 ) X12 )  ( <= ( + X12 30 ) X11 )  ( <= ( + Y11 21 ) Y12 )  ( <= ( + Y12 40 ) Y11 )  )
( or ( <= ( + X11 20 ) X13 )  ( <= ( + X13 96 ) X11 )  ( <= ( + Y11 21 ) Y13 )  ( <= ( + Y13 92 ) Y11 )  )
( or ( <= ( + X11 20 ) X14 )  ( <= ( + X14 15 ) X11 )  ( <= ( + Y11 21 ) Y14 )  ( <= ( + Y14 73 ) Y11 )  )
( or ( <= ( + X12 30 ) X13 )  ( <= ( + X13 96 ) X12 )  ( <= ( + Y12 40 ) Y13 )  ( <= ( + Y13 92 ) Y12 )  )
( or ( <= ( + X12 30 ) X14 )  ( <= ( + X14 15 ) X12 )  ( <= ( + Y12 40 ) Y14 )  ( <= ( + Y14 73 ) Y12 )  )
( or ( <= ( + X13 96 ) X14 )  ( <= ( + X14 15 ) X13 )  ( <= ( + Y13 92 ) Y14 )  ( <= ( + Y14 73 ) Y13 )  )
( >= X0 0)
( <= ( + X0 32) Z)
( >= Y0 0)
( <= ( + Y0 9 ) 100)
( >= X1 0)
( <= ( + X1 27) Z)
( >= Y1 0)
( <= ( + Y1 72 ) 100)
( >= X2 0)
( <= ( + X2 89) Z)
( >= Y2 0)
( <= ( + Y2 39 ) 100)
( >= X3 0)
( <= ( + X3 15) Z)
( >= Y3 0)
( <= ( + Y3 15 ) 100)
( >= X4 0)
( <= ( + X4 49) Z)
( >= Y4 0)
( <= ( + Y4 82 ) 100)
( >= X5 0)
( <= ( + X5 3) Z)
( >= Y5 0)
( <= ( + Y5 81 ) 100)
( >= X6 0)
( <= ( + X6 64) Z)
( >= Y6 0)
( <= ( + Y6 76 ) 100)
( >= X7 0)
( <= ( + X7 65) Z)
( >= Y7 0)
( <= ( + Y7 3 ) 100)
( >= X8 0)
( <= ( + X8 33) Z)
( >= Y8 0)
( <= ( + Y8 33 ) 100)
( >= X9 0)
( <= ( + X9 12) Z)
( >= Y9 0)
( <= ( + Y9 1 ) 100)
( >= X10 0)
( <= ( + X10 45) Z)
( >= Y10 0)
( <= ( + Y10 58 ) 100)
( >= X11 0)
( <= ( + X11 20) Z)
( >= Y11 0)
( <= ( + Y11 21 ) 100)
( >= X12 0)
( <= ( + X12 30) Z)
( >= Y12 0)
( <= ( + Y12 40 ) 100)
( >= X13 0)
( <= ( + X13 96) Z)
( >= Y13 0)
( <= ( + Y13 92 ) 100)
( >= X14 0)
( <= ( + X14 15) Z)
( >= Y14 0)
( <= ( + Y14 73 ) 100)
) )
)(=> $phi $goal))))